(set-logic QF_S)
(declare-fun var0 () String)
(assert (RegexIn var0 (RegexConcat (RegexStar (RegexPlus (Str2Reg "00"))) (RegexConcat (RegexPlus (RegexUnion (Str2Reg "11") (Str2Reg "22"))) (RegexConcat (RegexStar (RegexStar (Str2Reg "333"))) (RegexConcat (RegexUnion (RegexStar (Str2Reg "444")) (RegexStar (Str2Reg "5"))) (RegexConcat (RegexStar (RegexUnion (Str2Reg "6") (Str2Reg "77"))) (RegexConcat (RegexStar (RegexPlus (Str2Reg "8"))) (RegexConcat (RegexPlus (RegexUnion (Str2Reg "99") (Str2Reg "aa"))) (RegexConcat (RegexPlus (RegexStar (Str2Reg "bb"))) (RegexConcat (RegexUnion (RegexStar (Str2Reg "ccc")) (RegexStar (Str2Reg "d"))) (RegexConcat (RegexPlus (RegexStar (Str2Reg "e"))) (RegexConcat (RegexPlus (RegexStar (Str2Reg "fff"))) (RegexConcat (RegexUnion (RegexPlus (Str2Reg "g")) (RegexPlus (Str2Reg "h"))) (RegexConcat (RegexPlus (RegexStar (Str2Reg "iii"))) (RegexConcat (RegexStar (RegexPlus (Str2Reg "jjj"))) (RegexConcat (RegexUnion (RegexPlus (Str2Reg "kkk")) (RegexPlus (Str2Reg "l"))) (RegexConcat (RegexPlus (RegexPlus (Str2Reg "mmm"))) (RegexConcat (RegexStar (RegexUnion (Str2Reg "nn") (Str2Reg "ooo"))) (RegexConcat (RegexUnion (RegexStar (Str2Reg "ppp")) (RegexStar (Str2Reg "qq"))) (RegexConcat (RegexPlus (RegexUnion (Str2Reg "rrr") (Str2Reg "sss"))) (RegexConcat (RegexStar (RegexStar (Str2Reg "t"))) (RegexConcat (RegexPlus (RegexStar (Str2Reg "uuu"))) (RegexConcat (RegexStar (RegexUnion (Str2Reg "vvv") (Str2Reg "www"))) (RegexConcat (RegexPlus (RegexPlus (Str2Reg "xxx"))) (RegexConcat (RegexPlus (RegexUnion (Str2Reg "y") (Str2Reg "zz"))) (RegexConcat (RegexStar (RegexUnion (Str2Reg "AAA") (Str2Reg "BBB"))) (RegexConcat (RegexUnion (RegexPlus (Str2Reg "CC")) (RegexPlus (Str2Reg "DD"))) (RegexConcat (RegexPlus (RegexPlus (Str2Reg "EE"))) (RegexConcat (RegexUnion (RegexStar (Str2Reg "FFF")) (RegexStar (Str2Reg "GG"))) (RegexConcat (RegexStar (RegexStar (Str2Reg "H"))) (RegexConcat (RegexStar (RegexStar (Str2Reg "III"))) (RegexConcat (RegexUnion (RegexUnion (Str2Reg "JJ") (Str2Reg "KKK")) (RegexUnion (Str2Reg "LL") (Str2Reg "MM"))) (RegexConcat (RegexUnion (RegexUnion (Str2Reg "NN") (Str2Reg "O")) (RegexUnion (Str2Reg "PPP") (Str2Reg "QQ"))) (RegexConcat (RegexUnion (RegexPlus (Str2Reg "RRR")) (RegexPlus (Str2Reg "SSS"))) (RegexConcat (RegexStar (RegexPlus (Str2Reg "TTT"))) (RegexConcat (RegexStar (RegexPlus (Str2Reg "UUU"))) (RegexConcat (RegexUnion (RegexUnion (Str2Reg "VV") (Str2Reg "WWW")) (RegexUnion (Str2Reg "X") (Str2Reg "Y"))) (RegexConcat (RegexUnion (RegexStar (Str2Reg "ZZZ")) (RegexStar (Str2Reg "!!!"))) (RegexConcat (RegexStar (RegexStar (Str2Reg "\"\""))) (RegexConcat (RegexUnion (RegexPlus (Str2Reg "#")) (RegexPlus (Str2Reg "$$"))) (RegexConcat (RegexStar (RegexPlus (Str2Reg "%"))) (RegexConcat (RegexStar (RegexPlus (Str2Reg "&&"))) (RegexConcat (RegexPlus (RegexStar (Str2Reg "'"))) (RegexConcat (RegexUnion (RegexUnion (Str2Reg "(((") (Str2Reg ")))")) (RegexUnion (Str2Reg "**") (Str2Reg "+++"))) (RegexConcat (RegexPlus (RegexStar (Str2Reg ",,"))) (RegexConcat (RegexStar (RegexPlus (Str2Reg "--"))) (RegexConcat (RegexUnion (RegexUnion (Str2Reg ".") (Str2Reg "//")) (RegexUnion (Str2Reg ":") (Str2Reg ";;;"))) (RegexConcat (RegexPlus (RegexUnion (Str2Reg "<") (Str2Reg "=="))) (RegexConcat (RegexStar (RegexUnion (Str2Reg ">") (Str2Reg "?"))) (RegexConcat (RegexStar (RegexPlus (Str2Reg "@@"))) (RegexConcat (RegexUnion (RegexStar (Str2Reg "[[")) (RegexStar (Str2Reg "\\\\"))) (RegexConcat (RegexUnion (RegexStar (Str2Reg "]]")) (RegexStar (Str2Reg "^^"))) (RegexConcat (RegexUnion (RegexStar (Str2Reg "___")) (RegexStar (Str2Reg "`"))) (RegexConcat (RegexPlus (RegexStar (Str2Reg "{{"))) (RegexConcat (RegexStar (RegexUnion (Str2Reg "|||") (Str2Reg "}}"))) (RegexConcat (RegexUnion (RegexUnion (Str2Reg "~~") (Str2Reg "000")) (RegexUnion (Str2Reg "11") (Str2Reg "2"))) (RegexConcat (RegexStar (RegexUnion (Str2Reg "333") (Str2Reg "444"))) (RegexConcat (RegexPlus (RegexUnion (Str2Reg "555") (Str2Reg "6"))) (RegexConcat (RegexStar (RegexStar (Str2Reg "777"))) (RegexConcat (RegexUnion (RegexUnion (Str2Reg "888") (Str2Reg "99")) (RegexUnion (Str2Reg "aaa") (Str2Reg "bbb"))) (RegexConcat (RegexStar (RegexPlus (Str2Reg "ccc"))) (RegexConcat (RegexUnion (RegexStar (Str2Reg "dd")) (RegexStar (Str2Reg "eee"))) (RegexConcat (RegexPlus (RegexStar (Str2Reg "ff"))) (RegexConcat (RegexUnion (RegexPlus (Str2Reg "gg")) (RegexPlus (Str2Reg "hhh"))) (RegexConcat (RegexPlus (RegexUnion (Str2Reg "i") (Str2Reg "jjj"))) (RegexConcat (RegexPlus (RegexUnion (Str2Reg "kk") (Str2Reg "ll"))) (RegexConcat (RegexPlus (RegexUnion (Str2Reg "mm") (Str2Reg "nnn"))) (RegexConcat (RegexPlus (RegexUnion (Str2Reg "o") (Str2Reg "pp"))) (RegexConcat (RegexUnion (RegexStar (Str2Reg "q")) (RegexStar (Str2Reg "rr"))) (RegexConcat (RegexPlus (RegexStar (Str2Reg "ss"))) (RegexConcat (RegexPlus (RegexStar (Str2Reg "tt"))) (RegexConcat (RegexUnion (RegexUnion (Str2Reg "u") (Str2Reg "v")) (RegexUnion (Str2Reg "ww") (Str2Reg "xxx"))) (RegexConcat (RegexPlus (RegexStar (Str2Reg "yyy"))) (RegexConcat (RegexStar (RegexPlus (Str2Reg "zzz"))) (RegexConcat (RegexStar (RegexPlus (Str2Reg "AAA"))) (RegexConcat (RegexStar (RegexUnion (Str2Reg "B") (Str2Reg "C"))) (RegexConcat (RegexStar (RegexStar (Str2Reg "DDD"))) (RegexConcat (RegexStar (RegexPlus (Str2Reg "E"))) (RegexConcat (RegexPlus (RegexUnion (Str2Reg "FF") (Str2Reg "G"))) (RegexConcat (RegexUnion (RegexUnion (Str2Reg "H") (Str2Reg "I")) (RegexUnion (Str2Reg "J") (Str2Reg "KK"))) (RegexConcat (RegexUnion (RegexStar (Str2Reg "LL")) (RegexStar (Str2Reg "MM"))) (RegexConcat (RegexStar (RegexPlus (Str2Reg "NN"))) (RegexConcat (RegexPlus (RegexUnion (Str2Reg "OO") (Str2Reg "P"))) (RegexConcat (RegexPlus (RegexPlus (Str2Reg "QQQ"))) (RegexConcat (RegexStar (RegexPlus (Str2Reg "RRR"))) (RegexConcat (RegexUnion (RegexStar (Str2Reg "SSS")) (RegexStar (Str2Reg "TTT"))) (RegexConcat (RegexPlus (RegexUnion (Str2Reg "U") (Str2Reg "V"))) (RegexConcat (RegexPlus (RegexStar (Str2Reg "WWW"))) (RegexConcat (RegexUnion (RegexPlus (Str2Reg "XXX")) (RegexPlus (Str2Reg "YY"))) (RegexConcat (RegexStar (RegexStar (Str2Reg "Z"))) (RegexConcat (RegexPlus (RegexUnion (Str2Reg "!!") (Str2Reg "\"\""))) (RegexConcat (RegexPlus (RegexPlus (Str2Reg "##"))) (RegexConcat (RegexStar (RegexStar (Str2Reg "$"))) (RegexConcat (RegexPlus (RegexPlus (Str2Reg "%%%"))) (RegexConcat (RegexStar (RegexUnion (Str2Reg "&") (Str2Reg "'"))) (RegexConcat (RegexStar (RegexStar (Str2Reg "((("))) (RegexConcat (RegexPlus (RegexPlus (Str2Reg ")))"))) (RegexConcat (RegexStar (RegexPlus (Str2Reg "**"))) (RegexConcat (RegexPlus (RegexUnion (Str2Reg "++") (Str2Reg ",,"))) (RegexConcat (RegexUnion (RegexStar (Str2Reg "-")) (RegexStar (Str2Reg "."))) (RegexConcat (RegexStar (RegexStar (Str2Reg "///"))) (RegexConcat (RegexStar (RegexPlus (Str2Reg ":"))) (RegexConcat (RegexPlus (RegexPlus (Str2Reg ";;"))) (RegexConcat (RegexStar (RegexUnion (Str2Reg "<") (Str2Reg "="))) (RegexConcat (RegexPlus (RegexUnion (Str2Reg ">>>") (Str2Reg "???"))) (RegexConcat (RegexStar (RegexUnion (Str2Reg "@") (Str2Reg "[[["))) (RegexConcat (RegexPlus (RegexUnion (Str2Reg "\\\\") (Str2Reg "]"))) (RegexConcat (RegexPlus (RegexStar (Str2Reg "^"))) (RegexConcat (RegexPlus (RegexPlus (Str2Reg "__"))) (RegexConcat (RegexUnion (RegexPlus (Str2Reg "``")) (RegexPlus (Str2Reg "{{{"))) (RegexConcat (RegexStar (RegexUnion (Str2Reg "|||") (Str2Reg "}}}"))) (RegexConcat (RegexUnion (RegexPlus (Str2Reg "~~")) (RegexPlus (Str2Reg "00"))) (RegexConcat (RegexPlus (RegexStar (Str2Reg "111"))) (RegexConcat (RegexUnion (RegexStar (Str2Reg "2")) (RegexStar (Str2Reg "333"))) (RegexConcat (RegexPlus (RegexPlus (Str2Reg "44"))) (RegexConcat (RegexStar (RegexPlus (Str2Reg "5"))) (RegexConcat (RegexStar (RegexPlus (Str2Reg "6"))) (RegexConcat (RegexStar (RegexPlus (Str2Reg "7"))) (RegexConcat (RegexUnion (RegexStar (Str2Reg "8")) (RegexStar (Str2Reg "999"))) (RegexConcat (RegexPlus (RegexPlus (Str2Reg "aaa"))) (RegexConcat (RegexStar (RegexUnion (Str2Reg "bbb") (Str2Reg "cc"))) (RegexConcat (RegexPlus (RegexUnion (Str2Reg "dd") (Str2Reg "e"))) (RegexConcat (RegexPlus (RegexPlus (Str2Reg "ff"))) (RegexConcat (RegexPlus (RegexUnion (Str2Reg "ggg") (Str2Reg "h"))) (RegexConcat (RegexPlus (RegexUnion (Str2Reg "i") (Str2Reg "jj"))) (RegexConcat (RegexPlus (RegexStar (Str2Reg "kkk"))) (RegexConcat (RegexStar (RegexStar (Str2Reg "l"))) (RegexConcat (RegexStar (RegexPlus (Str2Reg "mm"))) (RegexConcat (RegexPlus (RegexUnion (Str2Reg "nn") (Str2Reg "o"))) (RegexConcat (RegexStar (RegexPlus (Str2Reg "pp"))) (RegexConcat (RegexStar (RegexUnion (Str2Reg "q") (Str2Reg "rr"))) (RegexConcat (RegexUnion (RegexPlus (Str2Reg "sss")) (RegexPlus (Str2Reg "ttt"))) (RegexConcat (RegexUnion (RegexStar (Str2Reg "uu")) (RegexStar (Str2Reg "vvv"))) (RegexConcat (RegexUnion (RegexStar (Str2Reg "w")) (RegexStar (Str2Reg "x"))) (RegexStar (RegexPlus (Str2Reg "y"))))))))))))))))))))))))))))))))))))))))))))))))))))))))))))))))))))))))))))))))))))))))))))))))))))))))))))))))))))))))))))))))))))))))))
(check-sat)